10
8
 53  87
 34  33
 61  49
 11  78
  7  70
 33  19
 82 100
 14  22
 15  83
 30  39
 91  92
 88  30
 30  34
 43  62
 61  62
  8  59
 69  19
 25  51
 56  17
 26  43
 60  99
 74  54
 21  29
 84  70
 50  46
 63   4
 68  18
  4  12
 39  62
 64  22
